\* Problem: Generate Non-Integer shares *\

Minimize
 z: + lamda + 0 x_5

Subject To
 c1: + e3 + e2 + e1 <= 1
 c2: + lamda + e3 + e1 >= 0.861654166907052
 c3: + lamda + e3 + e2 >= 0.861654166907052
 c4: + lamda + e2 + e1 >= 0.861654166907052

Bounds
 0 <= e1 <= 1
 0 <= e2 <= 1
 0 <= e3 <= 1
 x_5 = 0

End
